\Problem name: Branch and Bound 3

Minimize
OBJROW: -2 x_1 -10 x_2 -8 x_3 -7 x_4 -10 x_5 -10 x_6 -6 x_7
Subject To
constr(0):  5 x_1 + 7 x_2 + 8 x_3 + x_4 + 7 x_5 + 5 x_6 + 6 x_7 <= 20
constr(1):  x_1 + 6 x_2 + 4 x_3 + 9 x_4 + 10 x_5 + 6 x_6 + 10 x_7 <= 30
constr(2):  4 x_1 + 4 x_2 + 4 x_3 + x_4 + 5 x_5 + 5 x_6 + 10 x_7 <= 40
constr(3):  3 x_1 + 10 x_2 + 8 x_3 + x_4 + 3 x_5 + 3 x_6 + 8 x_7 <= 30
constr(4):  10 x_1 + 8 x_2 + 9 x_3 + 9 x_4 + 7 x_5 + 6 x_6 + 10 x_7 <= 20
constr(5):  6 x_1 + 6 x_2 + 3 x_3 + 6 x_4 + 3 x_5 + 7 x_6 + 2 x_7 <= 80
constr(6):  7 x_1 + 10 x_2 + 7 x_3 + 8 x_4 + 7 x_5 + 8 x_6 + 7 x_7 <= 100
constr(7):  9 x_1 + 8 x_2 + x_3 + x_4 + 8 x_5 + 10 x_6 + 2 x_7 <= 90
constr(8):  x_1 + 5 x_2 + 3 x_3 + 10 x_4 + 2 x_5 + 4 x_6 + 9 x_7 <= 70
constr(9):  9 x_1 + 6 x_2 + x_3 + 4 x_4 + 7 x_5 + 5 x_6 + 10 x_7 <= 60
constr(10):  5 x_1 + 7 x_2 + 4 x_3 + 4 x_4 + 3 x_5 + 4 x_6 + 10 x_7 <= 40
constr(11):  x_1 = 0
Bounds
End
